c ---- [ banner ] ------------------------------------------------------------
c
c Kissat SAT Solver
c 
c Copyright (c) 2021-2024 Armin Biere University of Freiburg
c Copyright (c) 2019-2021 Armin Biere Johannes Kepler University Linz
c 
c Version 4.0.1 43f02cf3e992cb44653b35e5cb26f93281552ae0
c gcc (Ubuntu 13.2.0-23ubuntu4) 13.2.0 -W -Wall -O3 -DNDEBUG
c Thu Sep 12 12:27:46 CEST 2024 Linux abryzen9 6.8.0-41-generic x86_64
c
c ---- [ parsing ] -----------------------------------------------------------
c
c opened and reading DIMACS file:
c
c   /data/artifact/AMulet2.0_artifact/exp4/cnf_sopb_64/64_64_U1_DT_JCA_Multgen_sopb.cnf
c
c parsed 'p cnf 28310 127631' header
c closing input after reading 2569344 bytes (2 MB)
c finished parsing after 0.02 seconds
c
c ---- [ options ] -----------------------------------------------------------
c
c --stable=0                       (different from default '1')
c
c ---- [ solving ] -----------------------------------------------------------
c
c  seconds switched rate     size/glue tier1  binary           remaining
c         MB reductions conflicts size  tier2     irredundant
c          level restarts redundant glue  trail           variables
c
c *  0.02 10 0 0 0  0 0   0   0 0.0 0 0 0 0 0% 12309 115320 28307 100%
c (  0.03 12 0 0 0  0 0   0   0 0.0 0 0 0 0 0% 12309 115320 28307 100%
c .  0.04 12 0 0 0  0 0   0   0 0.0 0 0 0 0 0% 12305 115320 28307 100%
c c  0.09 17 0 0 0  0 0   0   0 0.0 0 0 0 0 0% 16496 107020 26232 93%
c d  0.10 17 0 0 0  0 0   0   0 0.0 0 0 0 0 0% 12346 107020 26232 93%
c =  0.14 17 0 0 0  0 0   0   0 0.0 0 0 0 0 0% 12456 107018 26177 92%
c d  0.14 17 0 0 0  0 0   0   0 0.0 0 0 0 0 0% 12346 107018 26177 92%
c f  0.22 16 0 0 0  0 0   0   0 0.0 0 0 0 0 0% 17478 98699 29152 103%
c e  0.36 23 0 0 0  0 0   0   0 0.0 0 0 0 0 0% 10474 107694 20101 71%
c )  0.36 23 0 0 0  0 0   0   0 0.0 0 0 0 0 0% 10474 107694 20101 71%
c {  0.38 23 0 0 0  0 0   0   0 0.0 0 0 2 6 0% 10474 107694 20101 71%
c -  0.59 24 162 0 1 187 35 1001 734 3.8 29 8 3 9 29% 10515 107693 20101 71%
c -  0.90 24 260 0 2 312 36 2001 1356 4.5 35 8 3 12 31% 10550 107693 20101 71%
c c  1.14 22 292 0 2 387 37 2503 1814 4.6 36 8 3 12 30% 10573 107647 20091 71%
c d  1.15 22 292 0 2 387 37 2503 1813 4.6 36 8 3 12 30% 10553 107647 20091 71%
c u  1.17 22 292 0 2 387 37 2503 1519 4.6 36 8 3 12 30% 10560 107647 20091 71%
c v  1.20 22 292 0 2 387 37 2503 1251 4.6 36 8 3 12 30% 10560 107647 20091 71%
c w  1.23 23 292 0 2 387 37 2503 1251 4.6 36 8 3 12 30% 10560 107647 20091 71%
c x  1.26 23 292 0 2 387 37 2503 1251 4.6 36 8 3 12 30% 10560 107562 20091 71%
c =  1.35 23 292 0 2 387 37 2503 1251 4.6 36 8 3 12 30% 10666 107562 20038 71%
c
c  seconds   switched   rate       size/glue tier1     binary           remaining
c         MB  reductions conflicts       size  tier2       irredundant
c           level restarts    redundant    glue    trail           variables
c
c d  1.36 23 292 0 2 387 37 2503 1251 4.6 36 8 3 12 30% 10558 107562 20038 71%
c t  1.38 23 292 0 2 387 37 2503 1251 4.6 36 8 3 12 30% 10549 107562 20038 71%
c f  1.41 23 292 0 2 387 37 2503 1251 4.6 36 8 3 12 30% 11616 105489 20879 74%
c u  1.45 23 292 0 2 387 37 2503 1206 4.6 36 8 3 12 30% 11617 105489 20879 74%
c v  1.47 23 292 0 2 387 37 2503 1164 4.6 36 8 3 12 30% 11617 105489 20879 74%
c w  1.52 23 292 0 2 387 37 2503 1163 4.6 36 8 3 12 30% 11617 105489 20879 74%
c x  1.54 23 292 0 2 387 37 2503 1163 4.6 36 8 3 12 30% 11617 105439 20879 74%
c =  1.64 23 292 0 2 387 37 2503 1163 4.6 36 8 3 12 30% 11819 105439 20778 73%
c d  1.65 23 292 0 2 387 37 2503 1160 4.6 36 8 3 12 30% 11573 105439 20778 73%
c f  1.70 23 292 0 2 387 37 2503 1160 4.6 36 8 3 12 30% 12551 103956 21273 75%
c -  1.97 24 330 0 3 482 39 3415 1625 4.3 37 9 3 12 29% 12584 103956 21273 75%
c -  2.34 24 410 0 4 593 34 5148 2568 4.0 33 8 3 11 28% 12668 103956 21273 75%
c -  3.12 24 388 0 5 794 32 7149 3675 4.4 39 9 3 12 29% 12711 103956 21273 75%
c c  3.25 24 402 0 5 806 31 7711 4181 4.4 37 9 3 12 27% 12743 103726 21222 75%
c d  3.26 24 402 0 5 806 31 7711 4151 4.4 37 9 3 12 27% 12634 103726 21218 75%
c u  3.29 24 402 0 5 806 31 7711 3498 4.4 37 9 3 12 27% 12650 103726 21218 75%
c v  3.34 24 402 0 5 806 31 7711 3115 4.4 37 9 3 12 27% 12650 103726 21218 75%
c w  3.36 24 402 0 5 806 31 7711 3112 4.4 37 9 3 12 27% 12650 103726 21218 75%
c =  3.50 24 402 0 5 806 31 7711 3112 4.4 37 9 3 12 27% 13326 103726 20880 74%
c d  3.51 24 402 0 5 806 31 7711 3104 4.4 37 9 3 12 27% 12490 103726 20879 74%
c
c  seconds   switched   rate       size/glue tier1     binary           remaining
c         MB  reductions conflicts       size  tier2       irredundant
c           level restarts    redundant    glue    trail           variables
c
c t  3.53 24 402 0 5 806 31 7711 3104 4.4 37 9 3 12 27% 12483 103726 20879 74%
c f  3.58 24 402 0 5 806 31 7711 3104 4.4 37 9 3 12 27% 13359 102405 21318 75%
c u  3.70 24 402 0 5 806 31 7711 2979 4.4 37 9 3 12 27% 13361 102405 21318 75%
c v  3.73 24 402 0 5 806 31 7711 2908 4.4 37 9 3 12 27% 13361 102405 21318 75%
c w  3.75 24 402 0 5 806 31 7711 2903 4.4 37 9 3 12 27% 13361 102405 21318 75%
c x  3.80 24 402 0 5 806 31 7711 2903 4.4 37 9 3 12 27% 13361 102018 21318 75%
c =  3.94 24 402 0 5 806 31 7711 2903 4.4 37 9 3 12 27% 14011 102018 20993 74%
c d  3.95 24 402 0 5 806 31 7711 2897 4.4 37 9 3 12 27% 13194 102018 20992 74%
c t  3.97 24 402 0 5 806 31 7711 2897 4.4 37 9 3 12 27% 13151 102018 20992 74%
c f  4.02 24 402 0 5 806 31 7711 2897 4.4 37 9 3 12 27% 15396 98649 22116 78%
c -  4.37 24 392 0 6 887 30 9388 3643 4.3 35 8 3 11 27% 15468 98649 22116 78%
c o  4.63 24 389 0 6 991 31 10021 4157 4.2 36 9 3 11 27% 15492 98649 22116 78%
c -  5.63 24 362 0 7 1192 31 11838 4816 4.4 43 10 2 11 29% 15524 98649 22116 78%
c s  5.89 24 366 0 7 1244 30 12511 5375 4.4 43 10 2 11 29% 15550 96532 22116 78%
c e  6.03 24 366 0 7 1244 30 12511 5375 4.4 43 10 2 11 29% 14637 97033 21363 75%
c 2  6.03 24 366 0 7 1244 30 12511 5375 4.4 43 10 2 11 29% 14636 97033 21363 75%
c s  6.04 24 366 0 7 1244 30 12511 5375 4.4 43 10 2 11 29% 14666 96417 21363 75%
c e  6.06 24 366 0 7 1244 30 12511 5375 4.4 43 10 2 11 29% 14384 96601 21226 75%
c ^  6.06 24 366 0 7 1244 30 12511 5375 4.4 43 10 2 11 29% 14384 96601 21226 75%
c -  6.47 24 385 0 8 1319 29 14483 5595 4.3 41 10 2 11 28% 14415 96601 21226 75%
c
c  seconds   switched    rate        size/glue tier1     binary          remaining
c         MB  reductions   conflicts       size  tier2       irredundant
c           level  restarts     redundant    glue    trail          variables
c
c d  6.73 24 390 0 8 1364 28 15793 6786 4.3 40 9 2 11 29% 14000 96599 20970 74%
c u  6.78 24 390 0 8 1364 28 15793 6036 4.3 40 9 2 11 29% 14011 96599 20970 74%
c v  6.85 24 390 0 8 1364 28 15793 5085 4.3 40 9 2 11 29% 14013 96599 20970 74%
c w  6.93 24 390 0 8 1364 28 15793 5083 4.3 40 9 2 11 29% 14013 96599 20970 74%
c x  6.98 24 390 0 8 1364 28 15793 5083 4.3 40 9 2 11 29% 14022 96055 20970 74%
c =  7.22 24 390 0 8 1364 28 15793 5083 4.3 40 9 2 11 29% 14794 96053 20584 73%
c d  7.23 24 390 0 8 1364 28 15793 5014 4.3 40 9 2 11 29% 13905 96053 20580 73%
c t  7.26 24 390 0 8 1364 28 15793 5014 4.3 40 9 2 11 29% 13850 96053 20580 73%
c f  7.32 24 390 0 8 1364 28 15793 5014 4.3 40 9 2 11 29% 13987 95743 20653 73%
c c  7.37 24 390 0 8 1364 28 15793 5014 4.3 40 9 2 11 29% 13987 95735 20651 73%
c d  7.38 24 390 0 8 1364 28 15793 5014 4.3 40 9 2 11 29% 13986 95734 20651 73%
c u  7.40 24 390 0 8 1364 28 15793 4787 4.3 40 9 2 11 29% 13990 95734 20651 73%
c v  7.42 24 390 0 8 1364 28 15793 4648 4.3 40 9 2 11 29% 13990 95734 20651 73%
c w  7.49 24 390 0 8 1364 28 15793 4639 4.3 40 9 2 11 29% 13990 95734 20651 73%
c x  7.52 24 390 0 8 1364 28 15793 4638 4.3 40 9 2 11 29% 13990 94620 20651 73%
c =  7.76 24 390 0 8 1364 28 15793 4638 4.3 40 9 2 11 29% 16038 94620 19627 69%
c d  7.77 24 390 0 8 1364 28 15793 4571 4.3 40 9 2 11 29% 13048 94620 19624 69%
c t  7.80 24 390 0 8 1364 28 15793 4571 4.3 40 9 2 11 29% 13040 94620 19624 69%
c -  8.16 24 395 0 9 1449 28 17311 5161 4.2 39 9 2 11 28% 13057 94620 19624 69%
c o  8.66 24 389 0 9 1562 27 20035 7293 4.2 37 9 2 11 27% 13177 94619 19624 69%
c
c  seconds   switched     rate        size/glue tier1     binary          remaining
c         MB   reductions   conflicts       size  tier2       irredundant
c           level   restarts     redundant    glue    trail          variables
c
c -  8.82 24 388 0 10 1606 27 20315 6621 4.2 38 9 2 11 27% 13185 94619 19624 69%
c -  9.61 24 366 0 11 1780 26 23477 8209 4.2 37 9 2 10 28% 13227 94619 19624 69%
c s  9.91 24 357 0 11 1841 26 25016 9546 4.1 36 9 2 10 28% 13264 91325 19624 69%
c e 10.05 24 357 0 11 1841 26 25016 9546 4.1 36 9 2 10 28% 9721 95670 17721 63%
c s 10.06 24 357 0 11 1841 26 25016 9546 4.1 36 9 2 10 28% 9735 95080 17721 63%
c e 10.08 24 357 0 11 1841 26 25016 9546 4.1 36 9 2 10 28% 9618 95190 17671 62%
c ^ 10.08 24 357 0 11 1841 26 25016 9546 4.1 36 9 2 10 28% 9618 95190 17671 62%
c - 10.45 24 340 0 12 1909 25 26793 8495 4.0 34 9 2 10 27% 9640 95190 17671 62%
c d 10.51 24 340 0 12 1922 25 26922 8577 4.0 34 9 2 10 27% 9477 95190 17574 62%
c u 10.57 24 340 0 12 1922 25 26922 7397 4.0 34 9 2 10 27% 9493 95190 17574 62%
c v 10.63 24 340 0 12 1922 25 26922 6512 4.0 34 9 2 10 27% 9496 95190 17574 62%
c w 10.64 24 340 0 12 1922 25 26922 6509 4.0 34 9 2 10 27% 9496 95190 17574 62%
c x 10.73 24 340 0 12 1922 25 26922 6505 4.0 34 9 2 10 27% 9497 94004 17574 62%
c = 10.99 24 340 0 12 1922 25 26922 6505 4.0 34 9 2 10 27% 12157 94002 16244 57%
c d 11.00 24 340 0 12 1922 25 26922 6387 4.0 34 9 2 10 27% 9417 94002 16242 57%
c t 11.03 24 340 0 12 1922 25 26922 6387 4.0 34 9 2 10 27% 9415 94002 16242 57%
c f 11.11 24 340 0 12 1922 25 26922 6387 4.0 34 9 2 10 27% 9491 93785 16284 58%
c u 11.16 24 340 0 12 1922 25 26922 6086 4.0 34 9 2 10 27% 9492 93785 16284 58%
c v 11.20 24 340 0 12 1922 25 26922 5936 4.0 34 9 2 10 27% 9493 93785 16284 58%
c w 11.21 24 340 0 12 1922 25 26922 5936 4.0 34 9 2 10 27% 9493 93785 16284 58%
c
c  seconds   switched     rate        size/glue tier1     binary         remaining
c         MB   reductions   conflicts       size  tier2      irredundant
c           level   restarts     redundant    glue    trail         variables
c
c x 11.32 24 340 0 12 1922 25 26922 5936 4.0 34 9 2 10 27% 9493 88012 16284 58%
c = 11.57 24 340 0 12 1922 25 26922 5936 4.0 34 9 2 10 27% 10971 88012 15545 55%
c d 11.57 24 340 0 12 1922 25 26922 5827 4.0 34 9 2 10 27% 9455 88012 15545 55%
c t 11.60 24 340 0 12 1922 25 26922 5827 4.0 34 9 2 10 27% 9454 88012 15545 55%
c f 11.64 24 340 0 12 1922 25 26922 5827 4.0 34 9 2 10 27% 9457 88003 15547 55%
c - 12.29 25 314 0 13 2101 24 30257 7707 3.9 33 8 2 10 27% 9485 88002 15547 55%
c - 13.02 25 309 0 14 2323 23 33863 9539 3.8 32 8 2 10 27% 9526 88001 15547 55%
c - 13.50 25 304 0 15 2465 23 37604 11053 3.7 30 8 2 9 27% 9556 88001 15547 55%
c o 13.77 25 299 0 15 2514 22 40305 12980 3.6 29 8 2 9 26% 9635 88000 15547 55%
c c 14.13 25 294 0 15 2617 22 41251 13822 3.6 29 8 2 9 26% 9709 87525 15458 55%
c d 14.14 25 294 0 15 2617 22 41251 13445 3.6 29 8 2 9 26% 9531 87525 15458 55%
c u 14.20 25 294 0 15 2617 22 41251 11580 3.6 29 8 2 9 26% 9551 87525 15458 55%
c v 14.27 25 294 0 15 2617 22 41251 10789 3.6 29 8 2 9 26% 9552 87525 15458 55%
c w 14.31 25 294 0 15 2617 22 41251 10781 3.6 29 8 2 9 26% 9552 87525 15458 55%
c x 14.39 25 294 0 15 2617 22 41251 10779 3.6 29 8 2 9 26% 9553 83442 15458 55%
c d 14.62 25 294 0 15 2617 22 41251 10766 3.6 29 8 2 9 26% 9545 83442 15454 55%
c t 14.64 25 294 0 15 2617 22 41251 10766 3.6 29 8 2 9 26% 9540 83442 15454 55%
c u 14.73 25 294 0 15 2617 22 41251 10364 3.6 29 8 2 9 26% 9547 83442 15454 55%
c v 14.80 25 294 0 15 2617 22 41251 9492 3.6 29 8 2 9 26% 9549 83442 15454 55%
c w 14.86 25 294 0 15 2617 22 41251 9491 3.6 29 8 2 9 26% 9549 83442 15454 55%
c
c  seconds   switched     rate        size/glue tier1    binary         remaining
c         MB   reductions   conflicts       size  tier2     irredundant
c           level   restarts     redundant    glue   trail         variables
c
c x 14.94 25 294 0 15 2617 22 41251 9488 3.6 29 8 2 9 26% 9549 81515 15454 55%
c d 14.94 25 294 0 15 2617 22 41251 9486 3.6 29 8 2 9 26% 9543 81515 15451 55%
c - 15.10 25 293 0 16 2669 22 41476 8443 3.6 29 8 2 9 26% 9547 81515 15451 55%
c - 15.53 25 288 0 17 2768 21 45476 10400 3.5 28 8 2 8 25% 9589 81515 15451 55%
c - 16.10 25 305 0 18 2939 21 49600 12529 3.5 27 8 2 8 25% 9646 81515 15451 55%
c s 16.48 25 306 0 18 3058 21 52118 14793 3.4 26 8 2 8 25% 9664 79524 15451 55%
c e 16.59 25 306 0 18 3058 21 52118 14793 3.4 26 8 2 8 25% 8910 80826 14955 53%
c s 16.60 25 306 0 18 3058 21 52118 14793 3.4 26 8 2 8 25% 8910 80499 14955 53%
c e 16.62 25 306 0 18 3058 21 52118 14793 3.4 26 8 2 8 25% 8810 80646 14906 53%
c ^ 16.62 25 306 0 18 3058 21 52118 14793 3.4 26 8 2 8 25% 8810 80646 14906 53%
c - 16.81 25 302 0 19 3105 20 53842 13179 3.4 26 8 2 8 25% 8834 80646 14906 53%
c - 17.47 25 285 0 20 3313 20 58200 14964 3.3 25 8 2 8 25% 8890 80645 14906 53%
c c 17.59 25 284 0 20 3353 20 58883 15574 3.3 25 8 2 8 25% 9022 79924 14799 52%
c d 17.59 25 284 0 20 3353 20 58883 15333 3.3 25 8 2 8 25% 8808 79924 14799 52%
c u 17.67 25 284 0 20 3353 20 58883 12967 3.3 25 8 2 8 25% 8839 79924 14799 52%
c v 17.73 25 284 0 20 3353 20 58883 12241 3.3 25 8 2 8 25% 8840 79924 14799 52%
c w 17.76 25 284 0 20 3353 20 58883 12234 3.3 25 8 2 8 25% 8840 79924 14799 52%
c x 17.82 25 284 0 20 3353 20 58883 12234 3.3 25 8 2 8 25% 8840 79816 14799 52%
c = 18.06 25 284 0 20 3353 20 58883 12234 3.3 25 8 2 8 25% 8954 79816 14742 52%
c d 18.07 25 284 0 20 3353 20 58883 12043 3.3 25 8 2 8 25% 8825 79816 14736 52%
c
c  seconds   switched     rate         size/glue tier1    binary         remaining
c         MB   reductions   conflicts        size  tier2     irredundant
c           level   restarts      redundant    glue   trail         variables
c
c t 18.09 25 284 0 20 3353 20 58883 12043 3.3 25 8 2 8 25% 8817 79816 14736 52%
c f 18.14 25 284 0 20 3353 20 58883 12043 3.3 25 8 2 8 25% 8829 79766 14743 52%
c c 18.21 25 284 0 20 3353 20 58883 12043 3.3 25 8 2 8 25% 8836 79734 14739 52%
c d 18.22 25 284 0 20 3353 20 58883 12043 3.3 25 8 2 8 25% 8828 79734 14739 52%
c u 18.29 25 284 0 20 3353 20 58883 11598 3.3 25 8 2 8 25% 8835 79734 14739 52%
c v 18.35 25 284 0 20 3353 20 58883 10886 3.3 25 8 2 8 25% 8837 79734 14739 52%
c w 18.38 25 284 0 20 3353 20 58883 10866 3.3 25 8 2 8 25% 8837 79734 14739 52%
c = 18.65 25 284 0 20 3353 20 58883 10866 3.3 25 8 2 8 25% 9277 79734 14519 51%
c d 18.66 25 284 0 20 3353 20 58883 10760 3.3 25 8 2 8 25% 8815 79734 14519 51%
c - 19.19 25 272 0 21 3482 19 62672 12540 3.2 24 7 2 7 25% 8861 79734 14519 51%
c - 20.23 25 261 0 22 3874 19 67254 14743 3.1 24 8 2 7 25% 8912 79734 14519 51%
c o 20.92 25 258 0 22 4123 19 70406 17373 3.2 24 8 2 7 25% 8993 79734 14519 51%
c - 21.31 25 257 0 23 4274 20 71944 16516 3.2 24 8 2 7 25% 9008 79734 14519 51%
c - 22.35 25 254 0 24 4673 20 76740 18061 3.2 24 8 2 7 25% 9131 79734 14519 51%
c d 22.73 25 246 0 24 4803 20 79944 20225 3.2 24 7 2 7 24% 8908 79731 14363 51%
c u 22.84 25 246 0 24 4803 20 79944 16840 3.2 24 7 2 7 24% 8958 79731 14363 51%
c v 22.95 25 246 0 24 4803 20 79944 15129 3.2 24 7 2 7 24% 8965 79731 14363 51%
c w 23.01 25 246 0 24 4803 20 79944 15112 3.2 24 7 2 7 24% 8965 79731 14363 51%
c x 23.12 25 246 0 24 4803 20 79944 15100 3.2 24 7 2 7 24% 8967 76231 14363 51%
c = 23.54 25 246 0 24 4803 20 79944 15100 3.2 24 7 2 7 24% 10611 76231 13541 48%
c
c  seconds   switched     rate         size/glue tier1    binary         remaining
c         MB   reductions   conflicts        size  tier2     irredundant
c           level   restarts      redundant    glue   trail         variables
c
c d 23.55 25 246 0 24 4803 20 79944 14205 3.2 24 7 2 7 24% 8773 76231 13539 48%
c t 23.57 25 246 0 24 4803 20 79944 14205 3.2 24 7 2 7 24% 8767 76231 13539 48%
c f 23.62 25 246 0 24 4803 20 79944 14205 3.2 24 7 2 7 24% 8770 76218 13541 48%
c c 23.69 25 246 0 24 4803 20 79944 14203 3.2 24 7 2 7 24% 8772 76214 13540 48%
c d 23.70 25 246 0 24 4803 20 79944 14203 3.2 24 7 2 7 24% 8770 76214 13540 48%
c u 23.78 25 246 0 24 4803 20 79944 13075 3.2 24 7 2 7 24% 8773 76214 13540 48%
c v 23.85 25 246 0 24 4803 20 79944 12522 3.2 24 7 2 7 24% 8774 76214 13540 48%
c w 23.98 25 246 0 24 4803 20 79944 12426 3.2 24 7 2 7 24% 8774 76214 13540 48%
c x 24.09 25 246 0 24 4803 20 79944 12423 3.2 24 7 2 7 24% 8774 72722 13540 48%
c = 24.32 25 246 0 24 4803 20 79944 12423 3.2 24 7 2 7 24% 8976 72722 13439 47%
c d 24.33 25 246 0 24 4803 20 79944 12285 3.2 24 7 2 7 24% 8752 72722 13438 47%
c - 24.49 25 248 0 25 4838 20 81638 12376 3.2 23 7 2 7 24% 8768 72722 13438 47%
c - 25.57 25 239 0 26 5281 19 86640 15019 3.1 23 7 2 7 24% 8780 72722 13438 47%
c - 26.65 25 235 0 27 5690 19 91739 17290 3.1 23 7 2 7 24% 8825 72722 13438 47%
c s 27.33 25 233 0 27 5993 20 95788 20591 3.1 23 7 2 7 24% 8893 70395 13438 47%
c e 27.46 25 233 0 27 5993 20 95788 20591 3.1 23 7 2 7 24% 6031 77511 11911 42%
c s 27.49 25 233 0 27 5993 20 95788 20591 3.1 23 7 2 7 24% 6032 77138 11911 42%
c e 27.50 25 233 0 27 5993 20 95788 20591 3.1 23 7 2 7 24% 6021 77182 11898 42%
c ^ 27.50 25 233 0 27 5993 20 95788 20591 3.1 23 7 2 7 24% 6021 77182 11898 42%
c - 27.65 25 230 0 28 6041 19 96936 15227 3.0 23 7 2 7 24% 6040 77182 11898 42%
c
c  seconds   switched     rate          size/glue tier1    binary         remaining
c         MB   reductions   conflicts         size  tier2     irredundant
c           level   restarts       redundant    glue   trail         variables
c
c - 28.55 25 225 0 29 6427 19 102227 17377 3.0 23 8 2 7 24% 6129 77182 11898 42%
c d 29.28 25 222 0 29 6704 20 104581 19226 3.0 23 8 2 7 24% 6049 77182 11844 42%
c u 29.37 25 222 0 29 6704 20 104581 15735 3.0 23 8 2 7 24% 6090 77182 11844 42%
c v 29.46 25 222 0 29 6704 20 104581 13842 3.0 23 8 2 7 24% 6093 77182 11844 42%
c w 29.56 25 222 0 29 6704 20 104581 13835 3.0 23 8 2 7 24% 6093 77182 11844 42%
c x 29.66 25 222 0 29 6704 20 104581 13835 3.0 23 8 2 7 24% 6093 77146 11844 42%
c = 30.13 25 222 0 29 6704 20 104581 13835 3.0 23 8 2 7 24% 6603 77030 11577 41%
c d 30.14 25 222 0 29 6704 20 104581 13339 3.0 23 8 2 7 24% 5998 77030 11576 41%
c t 30.15 25 222 0 29 6704 20 104581 13339 3.0 23 8 2 7 24% 5978 77030 11576 41%
c f 30.24 25 222 0 29 6704 20 104581 13339 3.0 23 8 2 7 24% 5981 76996 11579 41%
c b 30.26 25 222 0 29 6704 20 104581 13339 3.0 23 8 2 7 24% 5981 76996 11578 41%
c u 30.33 25 222 0 29 6704 20 104581 12321 3.0 23 8 2 7 24% 5986 76996 11578 41%
c v 30.38 25 222 0 29 6704 20 104581 11976 3.0 23 8 2 7 24% 5986 76996 11578 41%
c w 30.71 25 222 0 29 6704 20 104581 11854 3.0 23 8 2 7 24% 5986 76996 11578 41%
c = 31.19 25 222 0 29 6704 20 104581 11854 3.0 23 8 2 7 24% 6140 76988 11501 41%
c d 31.19 25 222 0 29 6704 20 104581 11738 3.0 23 8 2 7 24% 5974 76988 11501 41%
c - 31.95 25 218 0 30 7009 20 107613 12920 3.0 23 8 2 7 24% 5967 76988 11501 41%
c i 32.11 25 216 0 30 7072 19 109518 14431 3.0 22 8 2 7 24% 5983 76988 11500 41%
c o 32.36 25 215 0 30 7181 19 110422 15271 2.9 22 8 2 7 24% 5984 76988 11500 41%
c - 32.77 25 214 0 31 7365 19 113093 15701 2.9 22 8 2 7 24% 5984 76987 11500 41%
c
c  seconds   switched     rate          size/glue tier1    binary         remaining
c         MB   reductions   conflicts         size  tier2     irredundant
c           level   restarts       redundant    glue   trail         variables
c
c i 33.34 25 212 0 31 7638 20 115166 17583 2.9 22 8 2 7 24% 5993 76987 11499 41%
c i 34.58 25 211 0 31 8193 20 118638 20771 2.9 23 8 2 7 25% 5999 76985 11498 41%
c - 34.59 25 211 0 32 8197 20 118660 18085 2.9 23 8 2 7 25% 5992 76985 11498 41%
c i 34.72 25 210 0 32 8264 20 119349 18650 2.9 23 8 2 7 25% 6007 76985 11497 41%
c i 35.04 25 209 0 32 8427 20 120634 19841 3.0 23 8 2 7 25% 6015 76985 11496 41%
c i 35.09 25 208 0 32 8455 20 121175 20244 2.9 23 8 2 7 25% 6021 76985 11495 41%
c i 35.29 25 208 0 32 8557 20 122117 21046 3.0 23 8 2 7 25% 6029 76985 11494 41%
c i 35.53 25 207 0 32 8682 20 123148 21943 2.9 23 8 2 7 25% 6039 76985 11493 41%
c i 35.79 25 206 0 32 8808 20 124235 22957 2.9 23 8 2 7 25% 6048 76985 11492 41%
c - 35.84 25 206 0 33 8824 20 124317 19872 2.9 23 8 2 6 25% 6025 76985 11492 41%
c i 37.71 25 202 0 33 9667 21 129592 24765 3.0 24 8 2 6 26% 6036 76984 11491 41%
c - 37.86 25 201 0 34 9727 21 130061 21845 3.0 24 8 2 6 26% 6034 76984 11491 41%
c i 38.21 25 200 0 34 9884 21 131458 23088 3.0 24 8 2 6 26% 6044 76984 11490 41%
c i 38.56 25 199 0 34 10023 21 132602 24076 3.0 24 8 2 6 26% 6055 76984 11487 41%
c c 38.66 25 199 0 34 10038 21 132840 24286 3.0 24 8 2 6 26% 6042 76855 11477 41%
c d 38.67 25 199 0 34 10038 21 132840 24009 3.0 24 8 2 6 26% 6048 76829 11477 41%
c d 38.68 25 199 0 34 10038 21 132840 24008 3.0 24 8 2 6 26% 6022 76829 11464 40%
c u 38.81 25 199 0 34 10038 21 132840 19581 3.0 24 8 2 6 26% 6040 76829 11463 40%
c v 38.96 25 199 0 34 10038 21 132840 16953 3.0 24 8 2 6 26% 6043 76829 11463 40%
c w 39.13 25 199 0 34 10038 21 132840 16937 3.0 24 8 2 6 26% 6043 76829 11463 40%
c
c  seconds   switched      rate          size/glue tier1    binary         remaining
c         MB   reductions    conflicts         size  tier2     irredundant
c           level   restarts        redundant    glue   trail         variables
c
c x 39.23 25 199 0 34 10038 21 132840 16930 3.0 24 8 2 6 26% 6047 75717 11463 40%
c = 39.92 25 199 0 34 10038 21 132840 16930 3.0 24 8 2 6 26% 6089 75678 11438 40%
c d 39.93 25 199 0 34 10038 21 132840 16864 3.0 24 8 2 6 26% 6033 75678 11438 40%
c t 39.95 25 199 0 34 10038 21 132840 16864 3.0 24 8 2 6 26% 6018 75678 11438 40%
c u 40.07 25 199 0 34 10038 21 132840 15583 3.0 24 8 2 6 26% 6025 75678 11438 40%
c v 40.16 25 199 0 34 10038 21 132840 15079 3.0 24 8 2 6 26% 6025 75678 11438 40%
c w 40.45 25 199 0 34 10038 21 132840 14883 3.0 24 8 2 6 26% 6025 75678 11438 40%
c x 40.64 25 199 0 34 10038 21 132840 14881 3.0 24 8 2 6 26% 6027 72496 11438 40%
c = 41.37 25 199 0 34 10038 21 132840 14881 3.0 24 8 2 6 26% 6085 72463 11405 40%
c d 41.38 25 199 0 34 10038 21 132840 14793 3.0 24 8 2 6 26% 6021 72463 11405 40%
c t 41.40 25 199 0 34 10038 21 132840 14793 3.0 24 8 2 6 26% 6019 72463 11405 40%
c i 41.42 25 199 0 34 10038 21 132840 14793 3.0 24 8 2 6 26% 6019 72463 11405 40%
c i 41.61 25 197 0 34 10095 21 133858 15710 3.0 24 8 2 6 26% 6025 72463 11404 40%
c i 41.81 25 196 0 34 10161 21 134842 16614 2.9 24 8 2 6 26% 6028 72460 11402 40%
c i 41.91 25 196 0 34 10200 21 135124 16868 2.9 24 8 2 6 26% 6031 72458 11401 40%
c - 42.14 25 196 0 35 10303 21 135891 14036 2.9 24 8 1 6 26% 6008 72457 11401 40%
c i 42.14 25 195 0 35 10303 21 135974 14098 2.9 24 8 1 6 26% 6013 72457 11400 40%
c i 42.17 25 195 0 35 10307 21 136130 14243 2.9 24 8 1 6 26% 6014 72456 11399 40%
c i 42.50 25 191 0 35 10480 20 139303 17108 2.9 23 8 1 6 26% 6019 72454 11398 40%
c i 42.57 25 190 0 35 10521 20 139786 17547 2.9 23 8 1 6 26% 6020 72454 11397 40%
c
c  seconds   switched      rate          size/glue tier1    binary         remaining
c         MB   reductions    conflicts         size  tier2     irredundant
c           level   restarts        redundant    glue   trail         variables
c
c i 42.66 25 188 0 35 10578 20 141262 18688 2.9 23 8 1 6 25% 6035 72454 11396 40%
c i 42.67 25 188 0 35 10581 20 141288 18712 2.9 23 8 1 6 25% 6035 72454 11395 40%
c i 42.68 25 187 0 35 10584 20 141551 18935 2.9 23 8 1 6 25% 6040 72454 11393 40%
c - 42.70 25 187 0 36 10588 20 141808 15223 2.9 23 8 1 6 25% 6018 72454 11393 40%
c i 42.72 25 186 0 36 10589 20 142220 15583 2.9 23 8 1 6 25% 6024 72454 11392 40%
c i 42.75 25 185 0 36 10607 20 143021 16216 2.9 23 8 1 6 25% 6034 72454 11391 40%
c i 42.80 25 182 0 36 10635 20 144262 17285 2.9 23 8 1 6 25% 6046 72453 11348 40%
c i 42.81 25 182 0 36 10635 20 144564 17531 2.9 23 8 1 6 25% 6048 72453 11346 40%
c i 42.81 25 181 0 36 10635 19 145167 17974 2.9 23 8 1 6 25% 6060 72453 11344 40%
c i 42.84 25 180 0 36 10652 19 145430 18229 2.9 23 8 1 6 24% 6060 72453 11289 40%
c i 42.84 25 180 0 36 10653 19 145452 18242 2.9 23 8 1 6 24% 6062 72453 11288 40%
c i 42.85 25 180 0 36 10655 19 145602 18359 2.9 23 8 1 6 24% 6069 72452 11287 40%
c i 42.85 25 180 0 36 10655 19 145603 18359 2.9 23 8 1 6 24% 6069 72452 11240 40%
c i 42.85 25 180 0 36 10655 19 145604 18359 2.9 23 8 1 6 24% 6069 72452 11239 40%
c i 42.85 25 180 0 36 10655 19 145608 18360 2.9 23 8 1 6 24% 6071 72452 11238 40%
c i 42.85 25 180 0 36 10655 19 145609 18360 2.9 23 8 1 6 24% 6071 72452 11237 40%
c } 42.85 25 180 0 36 10655 19 145617 18361 2.9 23 8 1 6 24% 6073 72451 11227 40%
c 0 42.85 25 180 0 36 10655 19 145617 18361 2.9 23 8 1 6 24% 6073 72451 11227 40%
c
c ---- [ result ] ------------------------------------------------------------
c
s UNSATISFIABLE
c
c ---- [ profiling ] ---------------------------------------------------------
c
c          29.44   68.72 %  search
c          29.44   68.72 %  focused
c          13.03   30.41 %  simplify
c          12.43   29.02 %  probe
c           5.23   12.21 %  sweep
c           4.85   11.31 %  vivify
c           0.83    1.94 %  factor
c           0.77    1.80 %  eliminate
c           0.66    1.54 %  substitute
c           0.61    1.41 %  congruence
c           0.33    0.77 %  preprocess
c           0.25    0.58 %  reduce
c           0.17    0.40 %  transitive
c           0.14    0.34 %  fastel
c           0.14    0.34 %  subsume
c           0.08    0.20 %  backbone
c           0.03    0.06 %  lucky
c           0.02    0.05 %  parse
c =============================================
c          42.85  100.00 %  total
c
c ---- [ statistics ] --------------------------------------------------------
c
c chronological:                         4863                3 %  conflicts
c conflicts:                           145617             3398.46 per second
c congruent:                             2348                8 %  variables
c decisions:                          2713773               18.64 per conflict
c eliminated:                           13979               49 %  variables
c factored:                              6003               21 %  variables
c fast_eliminated:                       9051               65 %  eliminated
c fast_strengthened:                      200               12 %  per strengthened
c fast_subsumed:                          191                2 %  per subsumed
c iterations:                              35                0 %  variables
c propagations:                     119062155          2778717    per second
c reductions:                              36             4045    interval
c reordered:                                5            29123    interval
c restarts:                             10655               14    interval
c strengthened:                          1624                0 %  checks
c substituted:                           8888               31 %  variables
c subsumed:                             11780                0 %  checks
c switched:                                 0                0    interval
c vivified:                             76483               14 %  checks
c
c ---- [ glue usage ] --------------------------------------------------------
c
c focused glue 1   used 170964 clauses 50.12% accumulated 50.12% tier1
c focused glue 2   used  78026 clauses 22.87% accumulated 72.99%
c focused glue 3-4 used  41381 clauses 12.13% accumulated 85.13%
c focused glue 5   used  10500 clauses  3.08% accumulated 88.20%
c focused glue 6   used   7990 clauses  2.34% accumulated 90.55% tier2
c
c ---- [ resources ] ---------------------------------------------------------
c
c maximum-resident-set-size:         25853952 bytes         25 MB
c process-time:                            43s              42.85 seconds
c
c ---- [ shutting down ] -----------------------------------------------------
c
c exit 20
